WARNING: for repeatability, setting FPU to use double precision
============================[ Problem Statistics ]=============================
|                                                                             |
|  Number of variables:           100                                         |
|  Number of clauses:             449                                         |
|  Parse time:                   0.00 s                                       |
|  Eliminated clauses:           0.00 Mb                                      |
|  Simplification time:          0.00 s                                       |
|                                                                             |
============================[ Search Statistics ]==============================
| Conflicts |          ORIGINAL         |          LEARNT          | Progress |
|           |    Vars  Clauses Literals |    Limit  Clauses Lit/Cl |          |
===============================================================================
|       100 |      97      445     1354 |      163      100      7 |  0.010 % |
===============================================================================
restarts              : 3
conflicts             : 220            (72037 /sec)
decisions             : 272            (0.00 % random) (89064 /sec)
propagations          : 4942           (1618206 /sec)
conflict literals     : 1216           (21.70 % deleted)
Memory used           : 13.00 MB
CPU time              : 0.003054 s

SATISFIABLE
